NAME : tsp50_23.196.tour
COMMENT : Length = 196
COMMENT : Found by LKH [Keld Helsgaun]
TYPE : TOUR
DIMENSION : 50
TOUR_SECTION
1
31
48
42
39
10
30
19
23
7
11
36
45
50
2
14
27
43
21
15
35
12
28
13
9
40
26
41
22
44
8
5
17
25
47
16
37
38
4
33
32
18
34
3
6
29
20
24
49
46
-1
EOF
